p edge 49 583
e 1 3
e 1 5
e 1 7
e 1 9
e 1 10
e 1 12
e 1 13
e 1 14
e 1 15
e 1 17
e 1 18
e 1 19
e 1 21
e 1 22
e 1 25
e 1 28
e 1 30
e 1 31
e 1 33
e 1 34
e 1 36
e 1 37
e 1 39
e 1 41
e 1 43
e 1 45
e 1 47
e 1 48
e 2 4
e 2 6
e 2 7
e 2 9
e 2 13
e 2 14
e 2 16
e 2 18
e 2 22
e 2 26
e 2 27
e 2 28
e 2 29
e 2 30
e 2 33
e 2 34
e 2 35
e 2 41
e 2 43
e 2 44
e 2 47
e 3 4
e 3 6
e 3 7
e 3 11
e 3 12
e 3 13
e 3 18
e 3 19
e 3 21
e 3 23
e 3 24
e 3 26
e 3 30
e 3 32
e 3 38
e 3 40
e 3 41
e 3 42
e 3 43
e 3 45
e 3 46
e 3 48
e 3 49
e 4 5
e 4 6
e 4 8
e 4 9
e 4 10
e 4 11
e 4 12
e 4 14
e 4 16
e 4 18
e 4 23
e 4 25
e 4 26
e 4 27
e 4 28
e 4 29
e 4 33
e 4 35
e 4 36
e 4 40
e 4 41
e 4 42
e 4 44
e 4 45
e 4 47
e 5 8
e 5 9
e 5 12
e 5 13
e 5 15
e 5 16
e 5 17
e 5 18
e 5 19
e 5 25
e 5 26
e 5 27
e 5 28
e 5 29
e 5 32
e 5 35
e 5 36
e 5 37
e 5 38
e 5 43
e 5 47
e 6 8
e 6 9
e 6 15
e 6 17
e 6 18
e 6 19
e 6 20
e 6 23
e 6 27
e 6 28
e 6 31
e 6 32
e 6 33
e 6 34
e 6 35
e 6 36
e 6 37
e 6 39
e 6 40
e 6 43
e 6 44
e 6 45
e 6 49
e 7 10
e 7 11
e 7 12
e 7 19
e 7 20
e 7 21
e 7 22
e 7 25
e 7 26
e 7 30
e 7 33
e 7 34
e 7 36
e 7 38
e 7 40
e 7 41
e 7 43
e 7 44
e 7 45
e 7 46
e 7 47
e 7 49
e 8 10
e 8 15
e 8 19
e 8 20
e 8 21
e 8 22
e 8 24
e 8 27
e 8 28
e 8 29
e 8 30
e 8 31
e 8 35
e 8 36
e 8 38
e 8 43
e 8 45
e 8 48
e 9 10
e 9 14
e 9 16
e 9 17
e 9 18
e 9 21
e 9 22
e 9 25
e 9 26
e 9 28
e 9 30
e 9 32
e 9 33
e 9 34
e 9 35
e 9 36
e 9 37
e 9 39
e 9 41
e 9 43
e 9 45
e 9 49
e 10 11
e 10 17
e 10 20
e 10 25
e 10 26
e 10 27
e 10 31
e 10 32
e 10 35
e 10 40
e 10 41
e 10 43
e 10 46
e 11 13
e 11 15
e 11 19
e 11 22
e 11 23
e 11 24
e 11 27
e 11 29
e 11 30
e 11 33
e 11 35
e 11 36
e 11 40
e 11 47
e 11 48
e 12 16
e 12 19
e 12 20
e 12 22
e 12 23
e 12 24
e 12 25
e 12 26
e 12 27
e 12 34
e 12 35
e 12 37
e 12 38
e 12 39
e 12 40
e 12 42
e 12 43
e 12 46
e 12 47
e 12 49
e 13 14
e 13 16
e 13 18
e 13 19
e 13 21
e 13 28
e 13 30
e 13 33
e 13 36
e 13 39
e 13 40
e 13 41
e 13 42
e 13 43
e 13 45
e 13 46
e 13 47
e 13 48
e 14 18
e 14 24
e 14 34
e 14 37
e 14 38
e 14 40
e 14 44
e 14 46
e 14 49
e 15 16
e 15 17
e 15 18
e 15 19
e 15 20
e 15 22
e 15 24
e 15 26
e 15 30
e 15 31
e 15 32
e 15 33
e 15 34
e 15 35
e 15 37
e 15 40
e 15 41
e 15 42
e 15 45
e 15 46
e 15 47
e 15 49
e 16 18
e 16 20
e 16 24
e 16 25
e 16 26
e 16 29
e 16 30
e 16 34
e 16 35
e 16 37
e 16 38
e 16 39
e 16 40
e 16 41
e 16 48
e 16 49
e 17 18
e 17 19
e 17 22
e 17 24
e 17 25
e 17 28
e 17 30
e 17 31
e 17 34
e 17 36
e 17 37
e 17 38
e 17 39
e 17 40
e 17 42
e 17 44
e 17 47
e 17 48
e 17 49
e 18 19
e 18 20
e 18 22
e 18 25
e 18 26
e 18 27
e 18 29
e 18 30
e 18 32
e 18 33
e 18 34
e 18 35
e 18 39
e 18 41
e 18 43
e 18 44
e 18 45
e 18 46
e 19 20
e 19 21
e 19 23
e 19 24
e 19 27
e 19 28
e 19 31
e 19 32
e 19 34
e 19 37
e 19 41
e 19 43
e 19 45
e 19 46
e 19 47
e 19 48
e 20 22
e 20 24
e 20 26
e 20 27
e 20 28
e 20 30
e 20 31
e 20 35
e 20 38
e 20 40
e 20 41
e 20 44
e 20 46
e 20 48
e 21 22
e 21 25
e 21 27
e 21 32
e 21 34
e 21 36
e 21 37
e 21 38
e 21 39
e 21 41
e 21 42
e 21 45
e 21 47
e 21 48
e 22 24
e 22 26
e 22 31
e 22 33
e 22 41
e 22 44
e 22 46
e 22 47
e 22 49
e 23 24
e 23 28
e 23 29
e 23 30
e 23 34
e 23 38
e 23 41
e 23 42
e 23 43
e 23 44
e 23 47
e 23 48
e 23 49
e 24 27
e 24 29
e 24 32
e 24 35
e 24 37
e 24 40
e 24 42
e 24 46
e 24 47
e 24 49
e 25 26
e 25 31
e 25 32
e 25 33
e 25 35
e 25 36
e 25 37
e 25 38
e 25 41
e 25 42
e 25 43
e 25 47
e 25 49
e 26 33
e 26 35
e 26 36
e 26 37
e 26 38
e 26 40
e 26 44
e 26 45
e 26 46
e 26 47
e 26 48
e 26 49
e 27 30
e 27 33
e 27 34
e 27 39
e 27 40
e 27 41
e 27 43
e 27 46
e 27 47
e 28 29
e 28 32
e 28 37
e 28 38
e 28 40
e 28 41
e 28 43
e 28 46
e 28 47
e 28 48
e 28 49
e 29 30
e 29 34
e 29 35
e 29 37
e 29 38
e 29 39
e 29 40
e 29 42
e 29 44
e 29 45
e 29 48
e 29 49
e 30 32
e 30 35
e 30 38
e 30 39
e 30 40
e 30 42
e 30 45
e 30 46
e 30 49
e 31 32
e 31 33
e 31 34
e 31 35
e 31 40
e 31 43
e 31 44
e 31 45
e 32 35
e 32 36
e 32 38
e 32 41
e 32 42
e 32 43
e 32 44
e 32 45
e 32 46
e 32 47
e 32 49
e 33 34
e 33 36
e 33 41
e 33 42
e 33 43
e 33 44
e 33 45
e 33 47
e 33 48
e 33 49
e 34 35
e 34 37
e 34 39
e 34 40
e 34 41
e 34 43
e 34 44
e 34 46
e 34 47
e 34 48
e 34 49
e 35 36
e 35 40
e 35 42
e 35 43
e 35 44
e 36 38
e 36 41
e 36 44
e 36 45
e 36 47
e 37 38
e 37 39
e 37 40
e 37 41
e 37 42
e 37 44
e 37 45
e 37 47
e 37 48
e 38 43
e 38 46
e 38 49
e 39 43
e 39 45
e 39 47
e 39 49
e 40 41
e 40 42
e 40 44
e 40 46
e 40 48
e 41 44
e 41 47
e 41 48
e 42 45
e 42 48
e 42 49
e 43 48
e 43 49
e 44 45
e 44 49
e 45 46
e 45 48
e 46 47
e 46 48
e 46 49
e 47 48
e 47 49
